(declare-const havoc Int)
(declare-const |y1':79:93| Int)
(declare-const |havoc:1| Int)
(declare-const |y3':81:91| Int)
(declare-const |y2':80:92| Int)
(declare-const |K:89:90| Int)
(assert (and (not (= (ite (<= (- havoc) 0) 1 0) 0))
               (not (= (ite (or (< |havoc:1| 0) (< (- |havoc:1|) 0)) 1 0) 0))
               (or (not (<= (- |K:89:90|) 0))
                     (= (+ |y3':81:91| |K:89:90| (- havoc)) 0))
               (or (not (<= (- |K:89:90|) 0))
                     (<= (+ |y1':79:93| |y2':80:92| (- |K:89:90|)) 0))
               (or (not (<= (- |K:89:90|) 0))
                     (<= (+ |y1':79:93| (- |K:89:90|)) 0))
               (or (not (<= (- |K:89:90|) 0)) (<= (- |y1':79:93|) 0))
               (or (and (= |K:89:90| 0) (= (+ (- |y3':81:91|) havoc) 0)
                          (= (- |y2':80:92|) 0) (= (- |y1':79:93|) 0))
                     (and (<= (+ (- |K:89:90|) 1) 0) (<= (- |y1':79:93|) 0)
                            (<= (- |y2':80:92|) 0)
                            (<= (+ (- |y1':79:93|) (- |y2':80:92|) 1) 0)))
               (<= (- |K:89:90|) 0) (<= (- |y1':79:93|) 0)
               (<= (- |y2':80:92|) 0)
               (= (+ |y2':80:92| |y3':81:91| (* |y1':79:93| |havoc:1|)
                       (- havoc)) 0) (<= (- |y3':81:91|) 0)
               (<= |y3':81:91| 0)
               (not (= (+ |y2':80:92| (* |y1':79:93| |havoc:1|) (- havoc)) 0))))
(check-sat)
